# Objective value = 95602
x66 0
x67 1
x68 0
x69 0
x70 1
x71 0
x72 0
x73 1
x74 0
x75 1
x76 0
x77 1
x78 0
x79 1
x80 1
x81 0
x82 1
x83 0
x84 1
x85 1
x86 1
x87 0
x88 1
x89 0
x90 1
x91 1
x92 1
x93 1
x94 1
x95 0
x96 1
x97 0
x98 0
x99 0
x100 0
x101 0
x102 0
x103 1
x104 0
x105 1
x106 1
x107 1
x108 1
x109 1
x110 0
x111 0
x112 1
x113 0
x114 1
x115 1
x116 1
x117 1
x118 1
x119 0
x120 1
x121 1
x122 0
x123 1
x124 0
x125 0
x126 0
x127 0
x128 0
x129 1
x130 0
x131 0
x132 0
x133 1
x134 0
x135 1
x136 1
x137 1
x138 1
x139 1
x140 0
x141 1
x142 1
x143 0
x144 1
x145 0
x146 1
x147 0
x148 0
x149 0
x150 0
x151 0
x152 1
x153 0
x154 0
x155 1
x156 0
x157 0
x158 1
x159 0
x160 1
x161 1
x162 1
x163 1
x164 1
x165 0
x166 1
x167 1
x168 0
x169 1
x170 0
x171 0
x172 1
x173 0
x174 1
x175 1
x176 1
x177 1
x178 1
x179 0
x180 1
x181 1
x182 0
x183 1
x184 0
x185 1
x186 0
x187 1
x188 0
x189 1
x190 1
x191 1
x192 1
x193 1
x194 0
x195 1
x196 1
x197 0
x198 1
x199 0
x200 1
x201 1
x202 1
x203 0
x204 1
x205 0
x206 0
x207 0
x208 1
x209 0
x210 1
x211 0
x212 1
x213 1
x214 1
x215 1
x216 0
x217 0
x218 1
x219 0
x220 1
x221 1
x222 0
x223 1
x224 0
x225 1
x226 0
x227 1
x228 0
x229 1
x230 1
x231 1
x232 1
x233 0
x234 1
x235 1
x236 0
x237 1
x238 1
x239 1
x240 0
x241 1
x242 0
x243 0
x244 1
x245 1
x246 1
x247 0
x248 1
x249 1
x250 1
x251 0
x252 1
x253 1
x254 0
x255 1
x256 1
x257 1
x258 1
x259 1
x260 0
x261 0
x262 0
x263 1
x264 1
x265 0
x266 1
x267 0
x268 0
x269 0
x270 0
x271 0
x272 0
x273 1
x274 1
x275 1
x276 0
x277 1
x278 1
x279 0
x280 1
x281 1
x282 1
x283 1
x284 1
x285 0
x286 0
x287 1
x288 1
x289 1
x290 1
x291 0
x292 1
x293 0
x294 1
x295 1
x296 1
x297 1
x298 1
x299 0
x300 1
x301 1
x302 1
x303 0
x304 0
x305 0
x306 1
x307 0
x308 1
x309 0
x310 0
x311 0
x312 0
x313 0
x314 1
x315 0
x316 0
x317 0
x318 1
x319 1
x320 1
x321 1
x322 0
x323 1
x324 0
x325 1
x326 1
x327 1
x328 1
x329 1
x330 0
x331 1
x332 1
x333 0
x334 0
x335 1
x336 0
x337 1
x338 1
x339 0
x340 1
x341 0
x342 1
x343 1
x344 1
x345 1
x346 1
x347 0
x348 1
x349 1
x350 0
x351 1
x352 0
x353 1
x354 1
x355 0
x356 1
x357 1
x358 1
x359 0
x360 1
x361 1
x362 1
x363 1
x364 1
x365 0
x366 1
x367 1
x368 0
x369 1
x370 1
x371 0
x372 0
x373 1
x374 0
x375 1
x376 1
x377 1
x378 0
x379 1
x380 1
x381 1
x382 1
x383 1
x384 0
x385 1
x386 1
x387 0
x388 1
x389 1
x390 1
x391 0
x392 1
x393 1
x394 0
x395 1
x396 1
x397 1
x398 0
x399 1
x400 1
x401 1
x402 1
x403 1
x404 0
x405 1
x406 1
x407 0
x408 1
x409 1
x410 1
x411 1
x412 1
x413 0
x414 1
x415 1
x416 0
x417 0
x418 0
x419 1
x420 0
x421 0
x422 0
x423 0
x424 0
x425 1
x426 0
x427 0
x428 1
x429 0
x430 0
x431 0
x432 0
x433 0
x434 0
x435 1
x436 0
x437 1
x438 1
x439 1
x440 0
x441 1
x442 1
x443 1
x444 1
x445 0
x446 1
x447 0
x448 1
x449 1
x450 1
x451 0
x452 1
x453 1
x454 1
x455 1
x456 1
x457 0
x458 1
x459 0
x460 1
x461 1
x462 1
x463 0
x464 1
x465 1
x466 1
x467 0
x468 1
x469 1
x470 1
x471 0
x472 1
x473 0
x474 0
x475 1
x476 1
x477 0
x478 0
x479 0
x480 0
x481 0
x482 0
x483 0
x484 0
x485 1
x486 1
x487 1
x488 1
x489 0
x490 0
x491 1
x492 1
x493 0
x494 1
x495 1
x496 1
x497 1
x498 0
x499 1
x500 1
x501 0
x502 0
x503 0
x504 1
x505 0
x506 0
x507 0
x508 1
x509 0
x510 0
x511 0
x512 0
x513 1
x514 0
x515 0
x516 1
x517 1
x518 1
x519 1
x520 0
x521 1
x522 1
x523 1
x524 0
x525 1
x526 1
x527 1
x528 1
x529 0
x530 1
x531 0
x532 0
x533 1
x534 1
x535 1
x536 1
x537 0
x538 1
x539 1
x540 1
x541 0
x542 1
x543 1
x544 1
x545 1
x546 0
x547 1
x548 0
x549 1
x550 1
x551 0
x552 0
x553 1
x554 0
x555 1
x556 0
x557 1
x558 0
x559 0
x560 0
x561 0
x562 0
x563 0
x564 1
x565 0
x566 1
x567 0
x568 0
x569 0
x570 1
x571 1
x572 0
x573 1
x574 1
x575 1
x576 0
x577 1
x578 1
x579 1
x580 1
x581 1
x582 1
x583 0
x584 1
x585 0
x586 1
x587 1
x588 0
x589 0
x590 1
x591 1
x592 0
x593 1
x594 1
x595 1
x596 0
x597 1
x598 1
x599 1
x600 1
x601 1
x602 1
x603 0
x604 1
x605 0
x606 1
x607 1
x608 0
x609 1
x610 0
x611 1
x612 1
x613 0
x614 1
x615 1
x616 1
x617 0
x618 1
x619 1
x620 0
x621 1
x622 1
x623 1
x624 0
x625 1
x626 0
x627 1
x628 1
x629 0
x630 1
x631 1
x632 0
x633 1
x634 0
x635 1
x636 1
x637 1
x638 1
x639 1
x640 1
x641 1
x642 0
x643 1
x644 1
x645 1
x646 0
x647 1
x648 0
x649 1
x650 1
x651 0
x652 1
x653 1
x654 1
x655 0
x656 1
x657 0
x658 1
x659 1
x660 1
x661 0
x662 1
x663 1
x664 1
x665 0
x666 1
x667 1
x668 1
x669 0
x670 1
x671 0
x672 1
x673 1
x674 0
x675 1
x676 1
x677 1
x678 1
x679 1
x680 1
x681 1
x682 0
x683 0
x684 0
x685 0
x686 0
x687 0
x688 0
x689 1
x690 0
x691 0
x692 0
x693 1
x694 0
x695 1
x696 0
x697 0
x698 1
x699 0
x700 0
x701 0
x702 0
x703 0
x704 0
x705 1
x706 0
x707 1
x708 1
x709 1
x710 1
x711 1
x712 1
x713 1
x714 0
x715 1
x716 1
x717 1
x718 0
x719 1
x720 0
x721 1
x722 1
x723 0
x724 1
x725 1
x726 1
x727 1
x728 1
x729 0
x730 0
x731 1
x732 0
x733 1
x734 1
x735 1
x736 0
x737 1
x738 1
x739 1
x740 1
x741 1
x742 1
x743 1
x744 0
x745 0
x746 1
x747 0
x748 1
x749 0
x750 1
x751 1
x752 1
x753 0
x754 1
x755 1
x756 1
x757 1
x758 1
x759 1
x760 1
x761 0
x762 1
x763 1
x764 1
x765 1
x766 0
x767 1
x768 0
x769 0
x770 0
x771 1
x772 0
x773 0
x774 0
x775 1
x776 0
x777 0
x778 0
x779 1
x780 0
x781 1
x782 0
x783 0
x784 0
x785 1
x786 0
x787 1
x788 1
x789 0
x790 0
x791 1
x792 1
x793 1
x794 1
x795 1
x796 1
x797 1
x798 0
x799 1
x800 1
x801 1
x802 1
x803 0
x804 1
x805 0
x806 0
x807 0
x808 0
x809 1
x810 1
x811 0
x812 0
x813 1
x814 0
x815 0
x816 1
x817 0
x818 0
x819 1
x820 0
x821 0
x822 0
x823 1
x824 0
x825 0
x826 0
x827 1
x828 1
x829 1
x830 0
x831 1
x832 1
x833 1
x834 0
x835 1
x836 1
x837 0
x838 1
x839 1
x840 1
x841 1
x842 1
x843 1
x844 0
x845 1
x846 0
x847 0
x848 1
x849 1
x850 1
x851 1
x852 0
x853 1
x854 1
x855 1
x856 0
x857 1
x858 1
x859 0
x860 1
x861 1
x862 1
x863 0
x864 1
x865 1
x866 0
x867 1
x868 0
x869 1
x870 0
x871 1
x872 1
x873 1
x874 1
x875 0
x876 1
x877 1
x878 1
x879 0
x880 1
x881 1
x882 0
x883 1
x884 1
x885 1
x886 1
x887 1
x888 1
x889 0
x890 1
x891 0
x892 1
x893 1
x894 0
x895 1
x896 1
x897 0
x898 1
x899 0
x900 1
x901 0
x902 1
x903 1
x904 1
x905 1
x906 1
x907 0
x908 1
x909 1
x910 1
x911 1
x912 1
x913 0
x914 1
x915 0
x916 1
x917 1
x918 1
x919 0
x920 1
x921 1
x922 0
x923 1
x924 1
x925 1
x926 0
x927 1
x928 1
x929 1
x930 1
x931 0
x932 0
x933 1
x934 1
x935 1
x936 1
x937 1
x938 0
x939 1
x940 0
x941 1
x942 1
x943 1
x944 1
x945 0
x946 1
x947 1
x948 0
x949 1
x950 1
x951 1
x952 0
x953 1
x954 1
x955 1
x956 1
x957 1
x958 0
x959 1
x960 1
x961 1
x962 1
x963 1
x964 0
x965 1
x966 0
x967 1
x968 1
x969 1
x970 1
x971 1
x972 1
x973 0
x974 0
x975 1
x976 0
x977 0
x978 0
x979 1
x980 0
x981 0
x982 1
x983 1
x984 0
x985 1
x986 0
x987 0
x988 0
x989 0
x990 0
x991 1
x992 0
x993 1
x994 0
x995 0
x996 0
x997 0
x998 0
x999 0
x1000 0
x1001 1
x1002 0
x1003 1
x1004 1
x1005 1
x1006 1
x1007 1
x1008 1
x1009 1
x1010 0
x1011 1
x1012 1
x1013 1
x1014 1
x1015 0
x1016 1
x1017 1
x1018 1
x1019 0
x1020 1
x1021 0
x1022 1
x1023 1
x1024 1
x1025 1
x1026 1
x1027 1
x1028 0
x1029 1
x1030 0
x1031 1
x1032 0
x1033 0
x1034 0
x1035 1
x1036 0
x1037 0
x1038 0
x1039 1
x1040 0
x1041 1
x1042 0
x1043 0
x1044 1
x1045 0
x1046 0
x1047 0
x1048 1
x1049 0
x1050 1
x1051 0
x1052 0
x1053 0
x1054 0
x1055 0
x1056 0
x1057 1
x1058 0
x1059 0
x1060 0
x1061 0
x1062 1
x1063 1
x1064 1
x1065 1
x1066 1
x1067 1
x1068 1
x1069 0
x1070 1
x1071 1
x1072 1
x1073 1
x1074 0
x1075 1
x1076 1
x1077 1
x1078 0
x1079 1
x1080 0
x1081 1
x1082 1
x1083 1
x1084 1
x1085 1
x1086 1
x1087 0
x1088 1
x1089 0
x1090 0
x1091 1
x1092 0
x1093 1
x1094 1
x1095 1
x1096 1
x1097 1
x1098 1
x1099 1
x1100 0
x1101 0
x1102 1
x1103 1
x1104 1
x1105 0
x1106 1
x1107 1
x1108 1
x1109 0
x1110 1
x1111 0
x1112 1
x1113 1
x1114 1
x1115 1
x1116 1
x1117 1
x1118 0
x1119 1
x1120 0
x1121 1
x1 1
x2 0
x3 1
x4 0
x5 0
x6 0
x7 0
x8 0
x9 1
x10 0
x11 0
x12 1
x13 0
x14 1
x15 0
x16 0
x17 0
x18 1
x19 0
x20 0
x21 0
x22 0
x23 0
x24 1
x25 0
x26 0
x27 1
x28 0
x29 0
x30 0
x31 0
x32 0
x33 1
x34 0
x35 0
x36 0
x37 1
x38 0
x39 1
x40 0
x41 0
x42 1
x43 0
x44 0
x45 0
x46 0
x47 0
x48 1
x49 0
x50 0
x51 0
x52 1
x53 0
x54 1
x55 0
x56 0
x57 0
x58 0
x59 0
x60 0
x61 1
x62 0
x63 1
x64 0
x65 0
